Minimize
 obj: 0 X_0_1
Subject To
 out_0:
  + 1 X_0_1 + 1 X_0_2 + 1 X_0_3 + 1 X_0_4 + 1 X_0_5 + 1 X_0_6 + 1 X_0_7 + 1 X_0_8
  + 1 X_0_9
  = 1
 in_0:
  + 1 X_1_0 + 1 X_2_0 + 1 X_3_0 + 1 X_4_0 + 1 X_5_0 + 1 X_6_0 + 1 X_7_0 + 1 X_8_0
  + 1 X_9_0
  = 1
 out_1:
  + 1 X_1_0 + 1 X_1_2 + 1 X_1_3 + 1 X_1_4 + 1 X_1_5 + 1 X_1_6 + 1 X_1_7 + 1 X_1_8
  + 1 X_1_9
  = 1
 in_1:
  + 1 X_0_1 + 1 X_2_1 + 1 X_3_1 + 1 X_4_1 + 1 X_5_1 + 1 X_6_1 + 1 X_7_1 + 1 X_8_1
  + 1 X_9_1
  = 1
 out_2:
  + 1 X_2_0 + 1 X_2_1 + 1 X_2_3 + 1 X_2_4 + 1 X_2_5 + 1 X_2_6 + 1 X_2_7 + 1 X_2_8
  + 1 X_2_9
  = 1
 in_2:
  + 1 X_0_2 + 1 X_1_2 + 1 X_3_2 + 1 X_4_2 + 1 X_5_2 + 1 X_6_2 + 1 X_7_2 + 1 X_8_2
  + 1 X_9_2
  = 1
 out_3:
  + 1 X_3_0 + 1 X_3_1 + 1 X_3_2 + 1 X_3_4 + 1 X_3_5 + 1 X_3_6 + 1 X_3_7 + 1 X_3_8
  + 1 X_3_9
  = 1
 in_3:
  + 1 X_0_3 + 1 X_1_3 + 1 X_2_3 + 1 X_4_3 + 1 X_5_3 + 1 X_6_3 + 1 X_7_3 + 1 X_8_3
  + 1 X_9_3
  = 1
 out_4:
  + 1 X_4_0 + 1 X_4_1 + 1 X_4_2 + 1 X_4_3 + 1 X_4_5 + 1 X_4_6 + 1 X_4_7 + 1 X_4_8
  + 1 X_4_9
  = 1
 in_4:
  + 1 X_0_4 + 1 X_1_4 + 1 X_2_4 + 1 X_3_4 + 1 X_5_4 + 1 X_6_4 + 1 X_7_4 + 1 X_8_4
  + 1 X_9_4
  = 1
 out_5:
  + 1 X_5_0 + 1 X_5_1 + 1 X_5_2 + 1 X_5_3 + 1 X_5_4 + 1 X_5_6 + 1 X_5_7 + 1 X_5_8
  + 1 X_5_9
  = 1
 in_5:
  + 1 X_0_5 + 1 X_1_5 + 1 X_2_5 + 1 X_3_5 + 1 X_4_5 + 1 X_6_5 + 1 X_7_5 + 1 X_8_5
  + 1 X_9_5
  = 1
 out_6:
  + 1 X_6_0 + 1 X_6_1 + 1 X_6_2 + 1 X_6_3 + 1 X_6_4 + 1 X_6_5 + 1 X_6_7 + 1 X_6_8
  + 1 X_6_9
  = 1
 in_6:
  + 1 X_0_6 + 1 X_1_6 + 1 X_2_6 + 1 X_3_6 + 1 X_4_6 + 1 X_5_6 + 1 X_7_6 + 1 X_8_6
  + 1 X_9_6
  = 1
 out_7:
  + 1 X_7_0 + 1 X_7_1 + 1 X_7_2 + 1 X_7_3 + 1 X_7_4 + 1 X_7_5 + 1 X_7_6 + 1 X_7_8
  + 1 X_7_9
  = 1
 in_7:
  + 1 X_0_7 + 1 X_1_7 + 1 X_2_7 + 1 X_3_7 + 1 X_4_7 + 1 X_5_7 + 1 X_6_7 + 1 X_8_7
  + 1 X_9_7
  = 1
 out_8:
  + 1 X_8_0 + 1 X_8_1 + 1 X_8_2 + 1 X_8_3 + 1 X_8_4 + 1 X_8_5 + 1 X_8_6 + 1 X_8_7
  + 1 X_8_9
  = 1
 in_8:
  + 1 X_0_8 + 1 X_1_8 + 1 X_2_8 + 1 X_3_8 + 1 X_4_8 + 1 X_5_8 + 1 X_6_8 + 1 X_7_8
  + 1 X_9_8
  = 1
 out_9:
  + 1 X_9_0 + 1 X_9_1 + 1 X_9_2 + 1 X_9_3 + 1 X_9_4 + 1 X_9_5 + 1 X_9_6 + 1 X_9_7
  + 1 X_9_8
  = 1
 in_9:
  + 1 X_0_9 + 1 X_1_9 + 1 X_2_9 + 1 X_3_9 + 1 X_4_9 + 1 X_5_9 + 1 X_6_9 + 1 X_7_9
  + 1 X_8_9
  = 1
 mtz_1_2:
  + 1 U1 - 1 U2 + 9 X_1_2
  <= 8
 mtz_1_3:
  + 1 U1 - 1 U3 + 9 X_1_3
  <= 8
 mtz_1_4:
  + 1 U1 - 1 U4 + 9 X_1_4
  <= 8
 mtz_1_5:
  + 1 U1 - 1 U5 + 9 X_1_5
  <= 8
 mtz_1_6:
  + 1 U1 - 1 U6 + 9 X_1_6
  <= 8
 mtz_1_7:
  + 1 U1 - 1 U7 + 9 X_1_7
  <= 8
 mtz_1_8:
  + 1 U1 - 1 U8 + 9 X_1_8
  <= 8
 mtz_1_9:
  + 1 U1 - 1 U9 + 9 X_1_9
  <= 8
 mtz_2_1:
  + 1 U2 - 1 U1 + 9 X_2_1
  <= 8
 mtz_2_3:
  + 1 U2 - 1 U3 + 9 X_2_3
  <= 8
 mtz_2_4:
  + 1 U2 - 1 U4 + 9 X_2_4
  <= 8
 mtz_2_5:
  + 1 U2 - 1 U5 + 9 X_2_5
  <= 8
 mtz_2_6:
  + 1 U2 - 1 U6 + 9 X_2_6
  <= 8
 mtz_2_7:
  + 1 U2 - 1 U7 + 9 X_2_7
  <= 8
 mtz_2_8:
  + 1 U2 - 1 U8 + 9 X_2_8
  <= 8
 mtz_2_9:
  + 1 U2 - 1 U9 + 9 X_2_9
  <= 8
 mtz_3_1:
  + 1 U3 - 1 U1 + 9 X_3_1
  <= 8
 mtz_3_2:
  + 1 U3 - 1 U2 + 9 X_3_2
  <= 8
 mtz_3_4:
  + 1 U3 - 1 U4 + 9 X_3_4
  <= 8
 mtz_3_5:
  + 1 U3 - 1 U5 + 9 X_3_5
  <= 8
 mtz_3_6:
  + 1 U3 - 1 U6 + 9 X_3_6
  <= 8
 mtz_3_7:
  + 1 U3 - 1 U7 + 9 X_3_7
  <= 8
 mtz_3_8:
  + 1 U3 - 1 U8 + 9 X_3_8
  <= 8
 mtz_3_9:
  + 1 U3 - 1 U9 + 9 X_3_9
  <= 8
 mtz_4_1:
  + 1 U4 - 1 U1 + 9 X_4_1
  <= 8
 mtz_4_2:
  + 1 U4 - 1 U2 + 9 X_4_2
  <= 8
 mtz_4_3:
  + 1 U4 - 1 U3 + 9 X_4_3
  <= 8
 mtz_4_5:
  + 1 U4 - 1 U5 + 9 X_4_5
  <= 8
 mtz_4_6:
  + 1 U4 - 1 U6 + 9 X_4_6
  <= 8
 mtz_4_7:
  + 1 U4 - 1 U7 + 9 X_4_7
  <= 8
 mtz_4_8:
  + 1 U4 - 1 U8 + 9 X_4_8
  <= 8
 mtz_4_9:
  + 1 U4 - 1 U9 + 9 X_4_9
  <= 8
 mtz_5_1:
  + 1 U5 - 1 U1 + 9 X_5_1
  <= 8
 mtz_5_2:
  + 1 U5 - 1 U2 + 9 X_5_2
  <= 8
 mtz_5_3:
  + 1 U5 - 1 U3 + 9 X_5_3
  <= 8
 mtz_5_4:
  + 1 U5 - 1 U4 + 9 X_5_4
  <= 8
 mtz_5_6:
  + 1 U5 - 1 U6 + 9 X_5_6
  <= 8
 mtz_5_7:
  + 1 U5 - 1 U7 + 9 X_5_7
  <= 8
 mtz_5_8:
  + 1 U5 - 1 U8 + 9 X_5_8
  <= 8
 mtz_5_9:
  + 1 U5 - 1 U9 + 9 X_5_9
  <= 8
 mtz_6_1:
  + 1 U6 - 1 U1 + 9 X_6_1
  <= 8
 mtz_6_2:
  + 1 U6 - 1 U2 + 9 X_6_2
  <= 8
 mtz_6_3:
  + 1 U6 - 1 U3 + 9 X_6_3
  <= 8
 mtz_6_4:
  + 1 U6 - 1 U4 + 9 X_6_4
  <= 8
 mtz_6_5:
  + 1 U6 - 1 U5 + 9 X_6_5
  <= 8
 mtz_6_7:
  + 1 U6 - 1 U7 + 9 X_6_7
  <= 8
 mtz_6_8:
  + 1 U6 - 1 U8 + 9 X_6_8
  <= 8
 mtz_6_9:
  + 1 U6 - 1 U9 + 9 X_6_9
  <= 8
 mtz_7_1:
  + 1 U7 - 1 U1 + 9 X_7_1
  <= 8
 mtz_7_2:
  + 1 U7 - 1 U2 + 9 X_7_2
  <= 8
 mtz_7_3:
  + 1 U7 - 1 U3 + 9 X_7_3
  <= 8
 mtz_7_4:
  + 1 U7 - 1 U4 + 9 X_7_4
  <= 8
 mtz_7_5:
  + 1 U7 - 1 U5 + 9 X_7_5
  <= 8
 mtz_7_6:
  + 1 U7 - 1 U6 + 9 X_7_6
  <= 8
 mtz_7_8:
  + 1 U7 - 1 U8 + 9 X_7_8
  <= 8
 mtz_7_9:
  + 1 U7 - 1 U9 + 9 X_7_9
  <= 8
 mtz_8_1:
  + 1 U8 - 1 U1 + 9 X_8_1
  <= 8
 mtz_8_2:
  + 1 U8 - 1 U2 + 9 X_8_2
  <= 8
 mtz_8_3:
  + 1 U8 - 1 U3 + 9 X_8_3
  <= 8
 mtz_8_4:
  + 1 U8 - 1 U4 + 9 X_8_4
  <= 8
 mtz_8_5:
  + 1 U8 - 1 U5 + 9 X_8_5
  <= 8
 mtz_8_6:
  + 1 U8 - 1 U6 + 9 X_8_6
  <= 8
 mtz_8_7:
  + 1 U8 - 1 U7 + 9 X_8_7
  <= 8
 mtz_8_9:
  + 1 U8 - 1 U9 + 9 X_8_9
  <= 8
 mtz_9_1:
  + 1 U9 - 1 U1 + 9 X_9_1
  <= 8
 mtz_9_2:
  + 1 U9 - 1 U2 + 9 X_9_2
  <= 8
 mtz_9_3:
  + 1 U9 - 1 U3 + 9 X_9_3
  <= 8
 mtz_9_4:
  + 1 U9 - 1 U4 + 9 X_9_4
  <= 8
 mtz_9_5:
  + 1 U9 - 1 U5 + 9 X_9_5
  <= 8
 mtz_9_6:
  + 1 U9 - 1 U6 + 9 X_9_6
  <= 8
 mtz_9_7:
  + 1 U9 - 1 U7 + 9 X_9_7
  <= 8
 mtz_9_8:
  + 1 U9 - 1 U8 + 9 X_9_8
  <= 8
 obj1:
  + 718 X_0_1 + 629 X_0_2 + 8 X_0_3 + 489 X_0_4 + 460 X_0_5 + 472 X_0_6 + 195 X_0_7 + 178 X_0_8
  + 572 X_0_9 + 718 X_1_0 + 245 X_1_2 + 719 X_1_3 + 585 X_1_4 + 421 X_1_5 + 975 X_1_6 + 749 X_1_7
  + 760 X_1_8 + 1186 X_1_9 + 629 X_2_0 + 245 X_2_1 + 633 X_2_3 + 679 X_2_4 + 214 X_2_5 + 992 X_2_6
  + 598 X_2_7 + 615 X_2_8 + 1168 X_2_9 + 8 X_3_0 + 719 X_3_1 + 633 X_3_2 + 483 X_3_4 + 466 X_3_5
  + 464 X_3_6 + 203 X_3_7 + 185 X_3_8 + 565 X_3_9 + 489 X_4_0 + 585 X_4_1 + 679 X_4_2 + 483 X_4_3
  + 658 X_4_5 + 439 X_4_6 + 659 X_4_7 + 650 X_4_8 + 680 X_4_9 + 460 X_5_0 + 421 X_5_1 + 214 X_5_2
  + 466 X_5_3 + 658 X_5_4 + 882 X_5_6 + 393 X_5_7 + 412 X_5_8 + 1026 X_5_9 + 472 X_6_0 + 975 X_6_1
  + 992 X_6_2 + 464 X_6_3 + 439 X_6_4 + 882 X_6_5 + 659 X_6_7 + 637 X_6_8 + 245 X_6_9 + 195 X_7_0
  + 749 X_7_1 + 598 X_7_2 + 203 X_7_3 + 659 X_7_4 + 393 X_7_5 + 659 X_7_6 + 25 X_7_8 + 724 X_7_9
  + 178 X_8_0 + 760 X_8_1 + 615 X_8_2 + 185 X_8_3 + 650 X_8_4 + 412 X_8_5 + 637 X_8_6 + 25 X_8_7
  + 699 X_8_9 + 572 X_9_0 + 1186 X_9_1 + 1168 X_9_2 + 565 X_9_3 + 680 X_9_4 + 1026 X_9_5 + 245 X_9_6
  + 724 X_9_7 + 699 X_9_8
  <= 1
 obj2:
  + 422 X_0_1 + 409 X_0_2 + 474 X_0_3 + 513 X_0_4 + 554 X_0_5 + 519 X_0_6 + 517 X_0_7 + 450 X_0_8
  + 355 X_0_9 + 422 X_1_0 + 707 X_1_2 + 77 X_1_3 + 924 X_1_4 + 887 X_1_5 + 798 X_1_6 + 740 X_1_7
  + 797 X_1_8 + 393 X_1_9 + 409 X_2_0 + 707 X_2_1 + 780 X_2_3 + 608 X_2_4 + 184 X_2_5 + 110 X_2_6
  + 149 X_2_7 + 123 X_2_8 + 364 X_2_9 + 474 X_3_0 + 77 X_3_1 + 780 X_3_2 + 964 X_3_4 + 959 X_3_5
  + 873 X_3_6 + 817 X_3_7 + 867 X_3_8 + 470 X_3_9 + 513 X_4_0 + 924 X_4_1 + 608 X_4_2 + 964 X_4_3
  + 596 X_4_5 + 680 X_4_6 + 757 X_4_7 + 527 X_4_8 + 813 X_4_9 + 554 X_5_0 + 887 X_5_1 + 184 X_5_2
  + 959 X_5_3 + 596 X_5_4 + 141 X_5_6 + 249 X_5_7 + 105 X_5_8 + 547 X_5_9 + 519 X_6_0 + 798 X_6_1
  + 110 X_6_2 + 873 X_6_3 + 680 X_6_4 + 141 X_6_5 + 108 X_6_7 + 155 X_6_8 + 432 X_6_9 + 517 X_7_0
  + 740 X_7_1 + 149 X_7_2 + 817 X_7_3 + 757 X_7_4 + 249 X_7_5 + 108 X_7_6 + 247 X_7_8 + 357 X_7_9
  + 450 X_8_0 + 797 X_8_1 + 123 X_8_2 + 867 X_8_3 + 527 X_8_4 + 105 X_8_5 + 155 X_8_6 + 247 X_8_7
  + 479 X_8_9 + 355 X_9_0 + 393 X_9_1 + 364 X_9_2 + 470 X_9_3 + 813 X_9_4 + 547 X_9_5 + 432 X_9_6
  + 357 X_9_7 + 479 X_9_8
  <= 2
 obj3:
  + 742 X_0_1 + 386 X_0_2 + 393 X_0_3 + 446 X_0_4 + 554 X_0_5 + 633 X_0_6 + 603 X_0_7 + 529 X_0_8
  + 553 X_0_9 + 742 X_1_0 + 766 X_1_2 + 1060 X_1_3 + 646 X_1_4 + 1261 X_1_5 + 867 X_1_6 + 139 X_1_7
  + 283 X_1_8 + 1291 X_1_9 + 386 X_2_0 + 766 X_2_1 + 371 X_2_3 + 148 X_2_4 + 852 X_2_5 + 999 X_2_6
  + 650 X_2_7 + 483 X_2_8 + 781 X_2_9 + 393 X_3_0 + 1060 X_3_1 + 371 X_3_2 + 517 X_3_4 + 572 X_3_5
  + 987 X_3_6 + 926 X_3_7 + 795 X_3_8 + 455 X_3_9 + 446 X_4_0 + 646 X_4_1 + 148 X_4_2 + 517 X_4_3
  + 962 X_4_5 + 1009 X_4_6 + 542 X_4_7 + 363 X_4_8 + 908 X_4_9 + 554 X_5_0 + 1261 X_5_1 + 852 X_5_2
  + 572 X_5_3 + 962 X_5_4 + 724 X_5_6 + 1124 X_5_7 + 1079 X_5_8 + 170 X_5_9 + 633 X_6_0 + 867 X_6_1
  + 999 X_6_2 + 987 X_6_3 + 1009 X_6_4 + 724 X_6_5 + 775 X_6_7 + 859 X_6_8 + 859 X_6_9 + 603 X_7_0
  + 139 X_7_1 + 650 X_7_2 + 926 X_7_3 + 542 X_7_4 + 1124 X_7_5 + 775 X_7_6 + 185 X_7_8 + 1152 X_7_9
  + 529 X_8_0 + 283 X_8_1 + 483 X_8_2 + 795 X_8_3 + 363 X_8_4 + 1079 X_8_5 + 859 X_8_6 + 185 X_8_7
  + 1080 X_8_9 + 553 X_9_0 + 1291 X_9_1 + 781 X_9_2 + 455 X_9_3 + 908 X_9_4 + 170 X_9_5 + 859 X_9_6
  + 1152 X_9_7 + 1080 X_9_8
  <= 3
 obj4:
  + 649 X_0_1 + 750 X_0_2 + 1132 X_0_3 + 329 X_0_4 + 748 X_0_5 + 541 X_0_6 + 528 X_0_7 + 261 X_0_8
  + 123 X_0_9 + 649 X_1_0 + 370 X_1_2 + 523 X_1_3 + 368 X_1_4 + 193 X_1_5 + 372 X_1_6 + 374 X_1_7
  + 439 X_1_8 + 536 X_1_9 + 750 X_2_0 + 370 X_2_1 + 462 X_2_3 + 606 X_2_4 + 553 X_2_5 + 712 X_2_6
  + 710 X_2_7 + 488 X_2_8 + 628 X_2_9 + 1132 X_3_0 + 523 X_3_1 + 462 X_3_2 + 887 X_3_4 + 578 X_3_5
  + 873 X_3_6 + 878 X_3_7 + 883 X_3_8 + 1010 X_3_9 + 329 X_4_0 + 368 X_4_1 + 606 X_4_2 + 887 X_4_3
  + 426 X_4_5 + 231 X_4_6 + 219 X_4_7 + 264 X_4_8 + 253 X_4_9 + 748 X_5_0 + 193 X_5_1 + 553 X_5_2
  + 578 X_5_3 + 426 X_5_4 + 313 X_5_6 + 321 X_5_7 + 584 X_5_8 + 650 X_5_9 + 541 X_6_0 + 372 X_6_1
  + 712 X_6_2 + 873 X_6_3 + 231 X_6_4 + 313 X_6_5 + 13 X_6_7 + 487 X_6_8 + 482 X_6_9 + 528 X_7_0
  + 374 X_7_1 + 710 X_7_2 + 878 X_7_3 + 219 X_7_4 + 321 X_7_5 + 13 X_7_6 + 476 X_7_8 + 470 X_7_9
  + 261 X_8_0 + 439 X_8_1 + 488 X_8_2 + 883 X_8_3 + 264 X_8_4 + 584 X_8_5 + 487 X_8_6 + 476 X_8_7
  + 140 X_8_9 + 123 X_9_0 + 536 X_9_1 + 628 X_9_2 + 1010 X_9_3 + 253 X_9_4 + 650 X_9_5 + 482 X_9_6
  + 470 X_9_7 + 140 X_9_8
  <= 4
 obj5:
  + 209 X_0_1 + 276 X_0_2 + 419 X_0_3 + 573 X_0_4 + 83 X_0_5 + 276 X_0_6 + 821 X_0_7 + 388 X_0_8
  + 448 X_0_9 + 209 X_1_0 + 346 X_1_2 + 396 X_1_3 + 521 X_1_4 + 293 X_1_5 + 466 X_1_6 + 896 X_1_7
  + 187 X_1_8 + 657 X_1_9 + 276 X_2_0 + 346 X_2_1 + 188 X_2_3 + 341 X_2_4 + 282 X_2_5 + 264 X_2_6
  + 558 X_2_7 + 427 X_2_8 + 531 X_2_9 + 419 X_3_0 + 396 X_3_1 + 188 X_3_2 + 156 X_3_4 + 450 X_3_5
  + 450 X_3_6 + 535 X_3_7 + 388 X_3_8 + 719 X_3_9 + 573 X_4_0 + 521 X_4_1 + 341 X_4_2 + 156 X_4_3
  + 606 X_4_5 + 598 X_4_6 + 520 X_4_7 + 462 X_4_8 + 867 X_4_9 + 83 X_5_0 + 293 X_5_1 + 282 X_5_2
  + 450 X_5_3 + 606 X_5_4 + 206 X_5_6 + 798 X_5_7 + 468 X_5_8 + 365 X_5_9 + 276 X_6_0 + 466 X_6_1
  + 264 X_6_2 + 450 X_6_3 + 598 X_6_4 + 206 X_6_5 + 646 X_6_7 + 615 X_6_8 + 268 X_6_9 + 821 X_7_0
  + 896 X_7_1 + 558 X_7_2 + 535 X_7_3 + 520 X_7_4 + 798 X_7_5 + 646 X_7_6 + 923 X_7_8 + 841 X_7_9
  + 388 X_8_0 + 187 X_8_1 + 427 X_8_2 + 388 X_8_3 + 462 X_8_4 + 468 X_8_5 + 615 X_8_6 + 923 X_8_7
  + 832 X_8_9 + 448 X_9_0 + 657 X_9_1 + 531 X_9_2 + 719 X_9_3 + 867 X_9_4 + 365 X_9_5 + 268 X_9_6
  + 841 X_9_7 + 832 X_9_8
  <= 5
 obj6:
  + 300 X_0_1 + 143 X_0_2 + 710 X_0_3 + 560 X_0_4 + 841 X_0_5 + 754 X_0_6 + 948 X_0_7 + 332 X_0_8
  + 484 X_0_9 + 300 X_1_0 + 328 X_1_2 + 411 X_1_3 + 331 X_1_4 + 699 X_1_5 + 538 X_1_6 + 770 X_1_7
  + 85 X_1_8 + 374 X_1_9 + 143 X_2_0 + 328 X_2_1 + 731 X_2_3 + 500 X_2_4 + 728 X_2_5 + 675 X_2_6
  + 845 X_2_7 + 322 X_2_8 + 379 X_2_9 + 710 X_3_0 + 411 X_3_1 + 731 X_3_2 + 401 X_3_4 + 756 X_3_5
  + 511 X_3_6 + 749 X_3_7 + 412 X_3_8 + 593 X_3_9 + 560 X_4_0 + 331 X_4_1 + 500 X_4_2 + 401 X_4_3
  + 394 X_4_5 + 207 X_4_6 + 443 X_4_7 + 252 X_4_8 + 208 X_4_9 + 841 X_5_0 + 699 X_5_1 + 728 X_5_2
  + 756 X_5_3 + 394 X_5_4 + 249 X_5_6 + 145 X_5_7 + 613 X_5_8 + 356 X_5_9 + 754 X_6_0 + 538 X_6_1
  + 675 X_6_2 + 511 X_6_3 + 207 X_6_4 + 249 X_6_5 + 249 X_6_7 + 459 X_6_8 + 312 X_6_9 + 948 X_7_0
  + 770 X_7_1 + 845 X_7_2 + 749 X_7_3 + 443 X_7_4 + 145 X_7_5 + 249 X_7_6 + 687 X_7_8 + 466 X_7_9
  + 332 X_8_0 + 85 X_8_1 + 322 X_8_2 + 412 X_8_3 + 252 X_8_4 + 613 X_8_5 + 459 X_8_6 + 687 X_8_7
  + 292 X_8_9 + 484 X_9_0 + 374 X_9_1 + 379 X_9_2 + 593 X_9_3 + 208 X_9_4 + 356 X_9_5 + 312 X_9_6
  + 466 X_9_7 + 292 X_9_8
  <= 6
Bounds
 1 <= U1 <= 9
 1 <= U2 <= 9
 1 <= U3 <= 9
 1 <= U4 <= 9
 1 <= U5 <= 9
 1 <= U6 <= 9
 1 <= U7 <= 9
 1 <= U8 <= 9
 1 <= U9 <= 9
Binary
 X_0_1
 X_0_2
 X_0_3
 X_0_4
 X_0_5
 X_0_6
 X_0_7
 X_0_8
 X_0_9
 X_1_0
 X_1_2
 X_1_3
 X_1_4
 X_1_5
 X_1_6
 X_1_7
 X_1_8
 X_1_9
 X_2_0
 X_2_1
 X_2_3
 X_2_4
 X_2_5
 X_2_6
 X_2_7
 X_2_8
 X_2_9
 X_3_0
 X_3_1
 X_3_2
 X_3_4
 X_3_5
 X_3_6
 X_3_7
 X_3_8
 X_3_9
 X_4_0
 X_4_1
 X_4_2
 X_4_3
 X_4_5
 X_4_6
 X_4_7
 X_4_8
 X_4_9
 X_5_0
 X_5_1
 X_5_2
 X_5_3
 X_5_4
 X_5_6
 X_5_7
 X_5_8
 X_5_9
 X_6_0
 X_6_1
 X_6_2
 X_6_3
 X_6_4
 X_6_5
 X_6_7
 X_6_8
 X_6_9
 X_7_0
 X_7_1
 X_7_2
 X_7_3
 X_7_4
 X_7_5
 X_7_6
 X_7_8
 X_7_9
 X_8_0
 X_8_1
 X_8_2
 X_8_3
 X_8_4
 X_8_5
 X_8_6
 X_8_7
 X_8_9
 X_9_0
 X_9_1
 X_9_2
 X_9_3
 X_9_4
 X_9_5
 X_9_6
 X_9_7
 X_9_8
End
